/*********************************************
 * OPL 12.6.0.0 Data
 * Author: Adrian Rodriguez Bazaga, Pau Rodriguez Esmerats
 * Creation Date: 06/12/2017 at 23:02:54
 *********************************************/

nNurses=87;
maxConsec=2;
maxPresence=7;
maxHours=5;
minHours=1;
hours=24;
demand= [14 12 22 22 12 22 22 12 15 9 1 1 1 1 1 1 0 0 0 0 16 27 11 24  ];
